unsat
((set-logic NIA)
(declare-fun c!3 () Int)
(declare-fun k!2 () Int)
(declare-fun n!0 () Int)
(declare-fun m!1 () Int)
(proof
(let (($x1417 (<= c!3 1)))
 (let ((?x469 (* (- 1) k!2)))
 (let ((?x212 (* n!0 n!0)))
 (let ((?x509 (* 3 ?x212)))
 (let ((?x133 (+ ?x509 (* 3 n!0) ?x469)))
 (let (($x295 (<= ?x133 0)))
 (let (($x134 (= ?x133 0)))
 (let ((?x354 (* (- 1) m!1)))
 (let ((?x426 (+ (* 6 n!0) ?x354)))
 (let (($x462 (= ?x426 (- 6))))
 (let (($x326 (not $x462)))
 (let ((?x466 (* n!0 k!2)))
 (let ((?x511 (* (- 3) k!2)))
 (let ((?x205 (* (- 3) c!3)))
 (let ((?x343 (* n!0 m!1)))
 (let ((?x627 (* 2 n!0)))
 (let ((?x302 (+ ?x627 ?x343 ?x205 ?x511 ?x466)))
 (let ((?x584 (* m!1 m!1)))
 (let ((?x539 (* k!2 k!2)))
 (let ((?x674 (* (- 9) ?x466)))
 (let ((?x289 (* n!0 c!3)))
 (let ((?x459 (* (- 9) ?x289)))
 (let ((?x427 (* 9 n!0)))
 (let ((?x414 (+ ?x427 ?x459 (* (- 27) c!3) (* (- 32) k!2) (* 2 (* k!2 m!1)) ?x674 ?x539 ?x584 (* (- 5) m!1))))
 (let ((?x713 (* 324 (* c!3 m!1 m!1))))
 (let ((?x706 (* 324 (* k!2 k!2 k!2))))
 (let ((?x374 (* 108 (* c!3 k!2 k!2 m!1))))
 (let ((?x695 (* 216 (* k!2 k!2 m!1 m!1))))
 (let ((?x198 (* 18 (* k!2 k!2 m!1 m!1 m!1))))
 (let ((?x368 (* (- 9) m!1)))
 (let ((?x325 (* 108 (* c!3 m!1 m!1 m!1))))
 (let ((?x174 (* (- 9) k!2)))
 (let ((?x382 (* 648 (* c!3 k!2 m!1))))
 (let ((?x479 (* 9 (* k!2 k!2 k!2 m!1 m!1))))
 (let ((?x465 (* 18 (* c!3 k!2 m!1 m!1 m!1))))
 (let ((?x155 (* 324 (* k!2 m!1 m!1))))
 (let ((?x409 (* 108 (* k!2 m!1 m!1 m!1))))
 (let ((?x307 (* 216 (* c!3 k!2 m!1 m!1))))
 (let ((?x312 (* 9 (* c!3 k!2 k!2 m!1 m!1))))
 (let ((?x320 (* 108 (* k!2 k!2 k!2 m!1))))
 (let ((?x488 (* 324 (* c!3 k!2 k!2))))
 (let ((?x328 (* 648 (* k!2 k!2 m!1))))
 (let ((?x204 (* 9 (* k!2 m!1 m!1 m!1 m!1))))
 (let ((?x202 (* 9 (* c!3 m!1 m!1 m!1 m!1))))
 (let ((?x457 (+ ?x202 ?x204 ?x328 ?x488 ?x320 ?x312 ?x307 ?x409 ?x155 ?x465 (* (- 9) ?x343) ?x479 ?x382 ?x174 ?x325 ?x674 ?x368 ?x198 ?x695 ?x374 ?x706 ?x713)))
 (let (($x231 (or (not (= (* ?x457 (+ 2 ?x627 ?x343 ?x205 ?x511 ?x466)) 0)) (not (= ?x414 (- 13))) (not (= ?x302 (- 2))) $x326 (not (= (+ ?x509 ?x427 ?x469 ?x354) (- 6))))))
 (let ((?x688 (+ ?x627 ?x205 ?x469 ?x466)))
 (let (($x698 (= ?x688 0)))
 (let ((?x393 (+ ?x427 ?x459 (* (- 18) c!3) (* (- 5) k!2) ?x539)))
 (let (($x442 (= ?x393 (- 4))))
 (let (($x346 (and $x462 $x442 $x698 $x134 $x231)))
 (let ((?x400 (+ ?x174 ?x368 (* (- 9) (* k!2 n!0)) ?x695 ?x374 ?x706 ?x713 (* (- 9) (* m!1 n!0)) ?x488 ?x409 ?x325 ?x155 ?x320 ?x307 ?x328 ?x312 ?x479 ?x465 ?x198 ?x202 ?x204 ?x382)))
 (let (($x571 (= (* ?x400 (+ 2 ?x205 ?x511 ?x627 (* k!2 n!0) (* m!1 n!0))) 0)))
 (let ((?x215 (* k!2 n!0)))
 (let ((?x113 (* (- 1) ?x215)))
 (let ((?x220 (* (- 2) n!0)))
 (let ((?x218 (* 3 c!3)))
 (let (($x349 (= (+ ?x218 (* 3 k!2) ?x220 ?x113 (* (- 1) (* m!1 n!0))) 2)))
 (let ((?x565 (* 9 (* c!3 n!0))))
 (let ((?x441 (* (- 1) ?x539)))
 (let ((?x126 (* (- 9) n!0)))
 (let ((?x503 (+ (* 27 c!3) (* 32 k!2) (* 5 m!1) ?x126 ?x441 (* 9 ?x215) ?x565 (* (- 2) (* k!2 m!1)) (* (- 1) ?x584))))
 (let (($x406 (or (not (= (+ m!1 (* (- 6) n!0)) 6)) (not (= ?x503 13)) (not $x349) (not $x571) (not (= (+ k!2 m!1 ?x126 (* (- 3) ?x212)) 6)))))
 (let (($x513 (= (+ m!1 (* (- 6) n!0)) 6)))
 (let (($x461 (and $x513 (= (+ (* 18 c!3) (* 5 k!2) ?x126 ?x441 ?x565) 4) (= (+ ?x218 k!2 ?x220 ?x113) 0) (= (+ k!2 (* (- 3) n!0) (* (- 3) ?x212)) 0) $x406)))
 (let (($x542 (exists ((c Int) (k Int) (m Int) (n Int) )(! (let (($x741 (not (= (+ k m (* (- 9) n) (* (- 3) (* n n))) 6))))
 (let ((?x371 (* m n)))
 (let ((?x52 (* k n)))
 (let ((?x56 (* 2 n)))
 (let ((?x230 (* (- 3) c)))
 (let ((?x536 (+ 2 ?x230 (* (- 3) k) ?x56 ?x52 ?x371)))
 (let ((?x656 (* 9 (* k m m m m))))
 (let ((?x654 (* 9 (* c m m m m))))
 (let ((?x644 (* 9 (* k k k m m))))
 (let ((?x642 (* 9 (* c k k m m))))
 (let ((?x694 (* (- 9) ?x371)))
 (let ((?x402 (* (- 9) ?x52)))
 (let ((?x691 (* (- 9) m)))
 (let ((?x408 (* (- 9) k)))
 (let ((?x146 (+ ?x408 ?x691 ?x402 (* 216 (* k k m m)) (* 108 (* c k k m)) (* 324 (* k k k)) (* 324 (* c m m)) ?x694 (* 324 (* c k k)) (* 108 (* k m m m)) (* 108 (* c m m m)) (* 324 (* k m m)) (* 108 (* k k k m)) (* 216 (* c k m m)) (* 648 (* k k m)) ?x642 ?x644 (* 18 (* c k m m m)) (* 18 (* k k m m m)) ?x654 ?x656 (* 648 (* c k m)))))
 (let ((?x262 (* (- 1) ?x52)))
 (let ((?x261 (* (- 2) n)))
 (let ((?x259 (* 3 c)))
 (let (($x552 (not (= (+ ?x259 (* 3 k) ?x261 ?x262 (* (- 1) ?x371)) 2))))
 (let ((?x159 (* 9 (* c n))))
 (let ((?x46 (* k k)))
 (let ((?x222 (* (- 1) ?x46)))
 (let ((?x221 (* (- 9) n)))
 (let ((?x434 (* 5 m)))
 (let ((?x522 (+ (* 27 c) (* 32 k) ?x434 ?x221 ?x222 (* 9 ?x52) ?x159 (* (- 2) (* k m)) (* (- 1) (* m m)))))
 (let (($x526 (not (= ?x522 13))))
 (let (($x142 (= (+ m (* (- 6) n)) 6)))
 (let (($x360 (not $x142)))
 (let (($x300 (= (+ k (* (- 3) n) (* (- 3) (* n n))) 0)))
 (let (($x264 (= (+ ?x259 k ?x261 ?x262) 0)))
 (let (($x219 (= (+ (* 18 c) (* 5 k) ?x221 ?x222 ?x159) 4)))
 (and $x142 $x219 $x264 $x300 (or $x360 $x526 $x552 (not (= (* ?x146 ?x536) 0)) $x741))))))))))))))))))))))))))))))))) :qid k!38))
 ))
 (let (($x538 (exists ((c Int) (k Int) (m Int) (n Int) )(! (let ((?x261 (* (- 2) n)))
 (let ((?x259 (* 3 c)))
 (let ((?x659 (+ ?x259 (* 4 k) (* (- 1) (* (+ 1 n) (+ k m))) m ?x261)))
 (let (($x142 (= (+ m (* (- 6) n)) 6)))
 (let (($x360 (not $x142)))
 (let ((?x61 (* 3 n)))
 (let ((?x351 (* (- 1) m)))
 (let ((?x335 (* (- 1) k)))
 (let (($x280 (= (+ (* 3 (* (+ 1 n) (+ 1 n))) ?x335 ?x351 ?x61) (- 3))))
 (let (($x288 (not $x280)))
 (let ((?x56 (* 2 n)))
 (let ((?x74 (+ k m)))
 (let ((?x365 (+ 1 n)))
 (let ((?x438 (* ?x365 ?x74)))
 (let ((?x390 (* (- 4) k)))
 (let ((?x230 (* (- 3) c)))
 (let ((?x318 (* 9 (* (+ 6 m) (+ 6 m) ?x74 ?x74 (+ c k)))))
 (let (($x294 (= (* (+ ?x318 (* (- 9) ?x438)) (+ 2 ?x230 ?x390 ?x438 ?x351 ?x56)) 0)))
 (let (($x180 (not $x294)))
 (let ((?x221 (* (- 9) n)))
 (let ((?x434 (* 5 m)))
 (let ((?x37 (* 18 c)))
 (let ((?x419 (+ ?x37 (* 23 k) (* 9 (* ?x365 (+ c k))) ?x434 ?x221 (* (- 1) (* ?x74 ?x74)))))
 (let (($x498 (= (+ (* 3 (* n n)) ?x335 ?x61) 0)))
 (let ((?x46 (* k k)))
 (let ((?x222 (* (- 1) ?x46)))
 (let ((?x41 (* 5 k)))
 (and $x142 (= (+ ?x37 (* 9 (* n c)) ?x41 ?x221 ?x222) 4) (= (+ ?x259 (* (- 1) (* n k)) k ?x261) 0) $x498 (or (not (= ?x419 13)) $x180 $x288 $x360 (not (= ?x659 2))))))))))))))))))))))))))))))) :qid k!38))
 ))
 (let ((?x504 (lambda ((c Int) (k Int) (m Int) (n Int) )(let (($x741 (not (= (+ k m (* (- 9) n) (* (- 3) (* n n))) 6))))
 (let ((?x371 (* m n)))
 (let ((?x52 (* k n)))
 (let ((?x56 (* 2 n)))
 (let ((?x230 (* (- 3) c)))
 (let ((?x536 (+ 2 ?x230 (* (- 3) k) ?x56 ?x52 ?x371)))
 (let ((?x656 (* 9 (* k m m m m))))
 (let ((?x654 (* 9 (* c m m m m))))
 (let ((?x644 (* 9 (* k k k m m))))
 (let ((?x642 (* 9 (* c k k m m))))
 (let ((?x694 (* (- 9) ?x371)))
 (let ((?x402 (* (- 9) ?x52)))
 (let ((?x691 (* (- 9) m)))
 (let ((?x408 (* (- 9) k)))
 (let ((?x146 (+ ?x408 ?x691 ?x402 (* 216 (* k k m m)) (* 108 (* c k k m)) (* 324 (* k k k)) (* 324 (* c m m)) ?x694 (* 324 (* c k k)) (* 108 (* k m m m)) (* 108 (* c m m m)) (* 324 (* k m m)) (* 108 (* k k k m)) (* 216 (* c k m m)) (* 648 (* k k m)) ?x642 ?x644 (* 18 (* c k m m m)) (* 18 (* k k m m m)) ?x654 ?x656 (* 648 (* c k m)))))
 (let ((?x262 (* (- 1) ?x52)))
 (let ((?x261 (* (- 2) n)))
 (let ((?x259 (* 3 c)))
 (let (($x552 (not (= (+ ?x259 (* 3 k) ?x261 ?x262 (* (- 1) ?x371)) 2))))
 (let ((?x159 (* 9 (* c n))))
 (let ((?x46 (* k k)))
 (let ((?x222 (* (- 1) ?x46)))
 (let ((?x221 (* (- 9) n)))
 (let ((?x434 (* 5 m)))
 (let ((?x522 (+ (* 27 c) (* 32 k) ?x434 ?x221 ?x222 (* 9 ?x52) ?x159 (* (- 2) (* k m)) (* (- 1) (* m m)))))
 (let (($x526 (not (= ?x522 13))))
 (let (($x142 (= (+ m (* (- 6) n)) 6)))
 (let (($x360 (not $x142)))
 (let (($x300 (= (+ k (* (- 3) n) (* (- 3) (* n n))) 0)))
 (let (($x264 (= (+ ?x259 k ?x261 ?x262) 0)))
 (let (($x219 (= (+ (* 18 c) (* 5 k) ?x221 ?x222 ?x159) 4)))
 (let (($x670 (and $x142 $x219 $x264 $x300 (or $x360 $x526 $x552 (not (= (* ?x146 ?x536) 0)) $x741))))
 (let ((?x659 (+ ?x259 (* 4 k) (* (- 1) (* (+ 1 n) (+ k m))) m ?x261)))
 (let ((?x61 (* 3 n)))
 (let ((?x351 (* (- 1) m)))
 (let ((?x335 (* (- 1) k)))
 (let (($x280 (= (+ (* 3 (* (+ 1 n) (+ 1 n))) ?x335 ?x351 ?x61) (- 3))))
 (let (($x288 (not $x280)))
 (let ((?x74 (+ k m)))
 (let ((?x365 (+ 1 n)))
 (let ((?x438 (* ?x365 ?x74)))
 (let ((?x390 (* (- 4) k)))
 (let ((?x318 (* 9 (* (+ 6 m) (+ 6 m) ?x74 ?x74 (+ c k)))))
 (let (($x294 (= (* (+ ?x318 (* (- 9) ?x438)) (+ 2 ?x230 ?x390 ?x438 ?x351 ?x56)) 0)))
 (let (($x180 (not $x294)))
 (let ((?x37 (* 18 c)))
 (let ((?x419 (+ ?x37 (* 23 k) (* 9 (* ?x365 (+ c k))) ?x434 ?x221 (* (- 1) (* ?x74 ?x74)))))
 (let (($x498 (= (+ (* 3 (* n n)) ?x335 ?x61) 0)))
 (let (($x172 (= (+ ?x37 (* 9 (* n c)) (* 5 k) ?x221 ?x222) 4)))
 (let (($x156 (and $x142 $x172 (= (+ ?x259 (* (- 1) (* n k)) k ?x261) 0) $x498 (or (not (= ?x419 13)) $x180 $x288 $x360 (not (= ?x659 2))))))
 (rewrite (= $x156 $x670)))))))))))))))))))))))))))))))))))))))))))))))))))))
 ))
 (let (($x380 (exists ((c Int) (k Int) (m Int) (n Int) )(! (let (($x142 (= (+ m (* (- 6) n)) 6)))
 (let (($x360 (not $x142)))
 (let ((?x61 (* 3 n)))
 (let ((?x351 (* (- 1) m)))
 (let ((?x335 (* (- 1) k)))
 (let (($x280 (= (+ (* 3 (* (+ 1 n) (+ 1 n))) ?x335 ?x351 ?x61) (- 3))))
 (let (($x288 (not $x280)))
 (let ((?x74 (+ k m)))
 (let ((?x80 (* ?x74 ?x74)))
 (let ((?x45 (* 9 n)))
 (let ((?x458 (* (- 18) c)))
 (let ((?x430 (+ ?x458 (* (- 23) k) (* (- 9) (* (+ 1 n) (+ c k))) (* (- 5) m) ?x45 ?x80)))
 (let ((?x56 (* 2 n)))
 (let ((?x365 (+ 1 n)))
 (let ((?x438 (* ?x365 ?x74)))
 (let ((?x390 (* (- 4) k)))
 (let ((?x230 (* (- 3) c)))
 (let ((?x318 (* 9 (* (+ 6 m) (+ 6 m) ?x74 ?x74 (+ c k)))))
 (let (($x294 (= (* (+ ?x318 (* (- 9) ?x438)) (+ 2 ?x230 ?x390 ?x438 ?x351 ?x56)) 0)))
 (let (($x180 (not $x294)))
 (let (($x327 (or $x180 (not (= (+ ?x230 ?x390 ?x438 ?x351 ?x56) (- 2))) (not (= ?x430 (- 13))) $x288 $x360)))
 (let (($x498 (= (+ (* 3 (* n n)) ?x335 ?x61) 0)))
 (let (($x132 (= (+ ?x458 (* (- 9) (* n c)) (* (- 5) k) ?x45 (* k k)) (- 4))))
 (and $x142 $x132 (= (+ ?x230 (* n k) ?x335 ?x56) 0) $x498 $x327)))))))))))))))))))))))) :qid k!38))
 ))
 (let ((?x444 (lambda ((c Int) (k Int) (m Int) (n Int) )(let ((?x261 (* (- 2) n)))
 (let ((?x259 (* 3 c)))
 (let ((?x659 (+ ?x259 (* 4 k) (* (- 1) (* (+ 1 n) (+ k m))) m ?x261)))
 (let (($x142 (= (+ m (* (- 6) n)) 6)))
 (let (($x360 (not $x142)))
 (let ((?x61 (* 3 n)))
 (let ((?x351 (* (- 1) m)))
 (let ((?x335 (* (- 1) k)))
 (let (($x280 (= (+ (* 3 (* (+ 1 n) (+ 1 n))) ?x335 ?x351 ?x61) (- 3))))
 (let (($x288 (not $x280)))
 (let ((?x56 (* 2 n)))
 (let ((?x74 (+ k m)))
 (let ((?x365 (+ 1 n)))
 (let ((?x438 (* ?x365 ?x74)))
 (let ((?x390 (* (- 4) k)))
 (let ((?x230 (* (- 3) c)))
 (let ((?x318 (* 9 (* (+ 6 m) (+ 6 m) ?x74 ?x74 (+ c k)))))
 (let (($x294 (= (* (+ ?x318 (* (- 9) ?x438)) (+ 2 ?x230 ?x390 ?x438 ?x351 ?x56)) 0)))
 (let (($x180 (not $x294)))
 (let ((?x221 (* (- 9) n)))
 (let ((?x434 (* 5 m)))
 (let ((?x37 (* 18 c)))
 (let ((?x419 (+ ?x37 (* 23 k) (* 9 (* ?x365 (+ c k))) ?x434 ?x221 (* (- 1) (* ?x74 ?x74)))))
 (let (($x498 (= (+ (* 3 (* n n)) ?x335 ?x61) 0)))
 (let ((?x46 (* k k)))
 (let ((?x222 (* (- 1) ?x46)))
 (let ((?x41 (* 5 k)))
 (let (($x156 (and $x142 (= (+ ?x37 (* 9 (* n c)) ?x41 ?x221 ?x222) 4) (= (+ ?x259 (* (- 1) (* n k)) k ?x261) 0) $x498 (or (not (= ?x419 13)) $x180 $x288 $x360 (not (= ?x659 2))))))
 (let ((?x80 (* ?x74 ?x74)))
 (let ((?x45 (* 9 n)))
 (let ((?x458 (* (- 18) c)))
 (let ((?x430 (+ ?x458 (* (- 23) k) (* (- 9) (* ?x365 (+ c k))) (* (- 5) m) ?x45 ?x80)))
 (let (($x327 (or $x180 (not (= (+ ?x230 ?x390 ?x438 ?x351 ?x56) (- 2))) (not (= ?x430 (- 13))) $x288 $x360)))
 (let (($x132 (= (+ ?x458 (* (- 9) (* n c)) (* (- 5) k) ?x45 ?x46) (- 4))))
 (let (($x570 (and $x142 $x132 (= (+ ?x230 (* n k) ?x335 ?x56) 0) $x498 $x327)))
 (rewrite (= $x570 $x156))))))))))))))))))))))))))))))))))))))
 ))
 (let (($x107 (exists ((c Int) (k Int) (m Int) (n Int) )(! (let ((?x98 (+ m 6)))
 (let ((?x74 (+ k m)))
 (let ((?x71 (+ c k)))
 (let ((?x101 (- (* 9 ?x71 ?x74 ?x74 ?x98 ?x98) (* 9 ?x74 (+ n 1)))))
 (let ((?x89 (+ (- (+ (* (- 3) ?x71) (* ?x74 (+ n 1))) ?x74) (* 2 (+ n 1)))))
 (let ((?x95 (+ (- (* 3 (+ n 1) (+ n 1)) ?x74) (* 3 (+ n 1)))))
 (let ((?x80 (* ?x74 ?x74)))
 (let ((?x78 (- (- (- 4 (* 18 ?x71)) (* 9 ?x71 (+ n 1))) (* 5 ?x74))))
 (let (($x70 (not (= (- (+ (- 6) m 6) (* 6 (+ n 1))) 0))))
 (let (($x105 (or $x70 (not (= (+ ?x78 (* 9 (+ n 1)) ?x80) 0)) (not (= ?x89 0)) (not (= ?x95 0)) (not (= (* ?x89 ?x101) 0)))))
 (let (($x58 (= (+ (- (+ (* (- 3) c) (* k n)) k) (* 2 n)) 0)))
 (let ((?x46 (* k k)))
 (let ((?x45 (* 9 n)))
 (let ((?x41 (* 5 k)))
 (let ((?x47 (+ (- (- (- 4 (* 18 c)) (* 9 c n)) ?x41) ?x45 ?x46)))
 (and (= (- (+ (- 6) m) (* 6 n)) 0) (= ?x47 0) $x58 (= (+ (- (* 3 n n) k) (* 3 n)) 0) $x105)))))))))))))))) :qid k!38))
 ))
 (let ((?x385 (lambda ((c Int) (k Int) (m Int) (n Int) )(let (($x142 (= (+ m (* (- 6) n)) 6)))
 (let (($x360 (not $x142)))
 (let ((?x61 (* 3 n)))
 (let ((?x351 (* (- 1) m)))
 (let ((?x335 (* (- 1) k)))
 (let (($x280 (= (+ (* 3 (* (+ 1 n) (+ 1 n))) ?x335 ?x351 ?x61) (- 3))))
 (let (($x288 (not $x280)))
 (let ((?x74 (+ k m)))
 (let ((?x80 (* ?x74 ?x74)))
 (let ((?x45 (* 9 n)))
 (let ((?x458 (* (- 18) c)))
 (let ((?x430 (+ ?x458 (* (- 23) k) (* (- 9) (* (+ 1 n) (+ c k))) (* (- 5) m) ?x45 ?x80)))
 (let ((?x56 (* 2 n)))
 (let ((?x365 (+ 1 n)))
 (let ((?x438 (* ?x365 ?x74)))
 (let ((?x390 (* (- 4) k)))
 (let ((?x230 (* (- 3) c)))
 (let ((?x318 (* 9 (* (+ 6 m) (+ 6 m) ?x74 ?x74 (+ c k)))))
 (let (($x294 (= (* (+ ?x318 (* (- 9) ?x438)) (+ 2 ?x230 ?x390 ?x438 ?x351 ?x56)) 0)))
 (let (($x180 (not $x294)))
 (let (($x327 (or $x180 (not (= (+ ?x230 ?x390 ?x438 ?x351 ?x56) (- 2))) (not (= ?x430 (- 13))) $x288 $x360)))
 (let (($x498 (= (+ (* 3 (* n n)) ?x335 ?x61) 0)))
 (let (($x132 (= (+ ?x458 (* (- 9) (* n c)) (* (- 5) k) ?x45 (* k k)) (- 4))))
 (let (($x570 (and $x142 $x132 (= (+ ?x230 (* n k) ?x335 ?x56) 0) $x498 $x327)))
 (let ((?x101 (- (* 9 (+ c k) ?x74 ?x74 (+ m 6) (+ m 6)) (* 9 ?x74 (+ n 1)))))
 (let ((?x89 (+ (- (+ (* (- 3) (+ c k)) (* ?x74 (+ n 1))) ?x74) (* 2 (+ n 1)))))
 (let ((?x95 (+ (- (* 3 (+ n 1) (+ n 1)) ?x74) (* 3 (+ n 1)))))
 (let ((?x77 (- (- 4 (* 18 (+ c k))) (* 9 (+ c k) (+ n 1)))))
 (let (($x82 (= (+ (- ?x77 (* 5 ?x74)) (* 9 (+ n 1)) ?x80) 0)))
 (let (($x70 (not (= (- (+ (- 6) m 6) (* 6 (+ n 1))) 0))))
 (let (($x105 (or $x70 (not $x82) (not (= ?x89 0)) (not (= ?x95 0)) (not (= (* ?x89 ?x101) 0)))))
 (let ((?x46 (* k k)))
 (let ((?x41 (* 5 k)))
 (let ((?x47 (+ (- (- (- 4 (* 18 c)) (* 9 c n)) ?x41) ?x45 ?x46)))
 (let (($x106 (and (= (- (+ (- 6) m) (* 6 n)) 0) (= ?x47 0) (= (+ (- (+ (* (- 3) c) (* k n)) k) ?x56) 0) (= (+ (- (* 3 n n) k) ?x61) 0) $x105)))
 (rewrite (= $x106 $x570))))))))))))))))))))))))))))))))))))))
 ))
 (let ((@x108 (asserted $x107)))
 (let ((@x473 (mp (mp @x108 (quant-intro (proof-bind ?x385) (= $x107 $x380)) $x380) (rewrite (= $x380 $x380)) $x380)))
 (let ((@x418 (mp (mp @x473 (quant-intro (proof-bind ?x444) (= $x380 $x538)) $x538) (quant-intro (proof-bind ?x504) (= $x538 $x542)) $x542)))
 (let ((@x332 (mp (mp~ @x418 (sk (~ $x542 $x461)) $x461) (rewrite (= $x461 $x346)) $x346)))
 (let ((@x284 (and-elim @x332 $x134)))
 (let ((@x234 (unit-resolution ((_ th-lemma arith triangle-eq) (or (not $x134) $x295)) @x284 $x295)))
 (let (($x181 (>= ?x133 0)))
 (let ((@x287 (unit-resolution ((_ th-lemma arith triangle-eq) (or (not $x134) $x181)) @x284 $x181)))
 (let (($x472 (<= ?x688 0)))
 (let ((@x293 (and-elim @x332 $x698)))
 (let ((@x138 (unit-resolution ((_ th-lemma arith triangle-eq) (or (not $x698) $x472)) @x293 $x472)))
 (let (($x282 (>= ?x688 0)))
 (let ((@x266 (unit-resolution ((_ th-lemma arith triangle-eq) (or (not $x698) $x282)) @x293 $x282)))
 (let (($x597 (<= ?x393 (- 4))))
 (let ((@x304 (and-elim @x332 $x442)))
 (let ((@x440 (unit-resolution ((_ th-lemma arith triangle-eq) (or (not $x442) $x597)) @x304 $x597)))
 (let (($x194 (>= ?x393 (- 4))))
 (let ((@x241 (unit-resolution ((_ th-lemma arith triangle-eq) (or (not $x442) $x194)) @x304 $x194)))
 (let (($x144 (<= ?x426 (- 6))))
 (let ((@x127 (and-elim @x332 $x462)))
 (let ((@x233 (unit-resolution ((_ th-lemma arith triangle-eq) (or $x326 $x144)) @x127 $x144)))
 (let (($x598 (>= ?x426 (- 6))))
 (let ((@x455 (unit-resolution ((_ th-lemma arith triangle-eq) (or $x326 $x598)) @x127 $x598)))
 (let ((@x1647 ((_ th-lemma arith) (hypothesis (not $x1417)) @x287 @x234 @x241 @x440 @x287 @x234 @x287 @x234 @x241 @x440 @x241 @x440 @x455 @x233 @x287 @x234 @x287 @x234 @x241 @x440 @x241 @x440 @x266 @x138 @x287 @x234 false)))
 (let ((@x1650 (lemma @x1647 $x1417)))
 (let (($x1546 (<= n!0 1)))
 (let ((@x1551 (hypothesis $x1546)))
 (let (($x1419 (>= n!0 1)))
 (let (($x868 (<= n!0 0)))
 (let (($x959 (not $x868)))
 (let (($x746 (>= n!0 0)))
 (let (($x668 (<= k!2 0)))
 (let (($x548 (not $x668)))
 (let ((@x388 (hypothesis $x668)))
 (let (($x128 (>= k!2 0)))
 (let ((@x533 (hypothesis (not $x128))))
 (let ((@x345 (lemma ((_ th-lemma arith) @x533 @x234 @x533 @x234 @x533 @x234 false) $x128)))
 (let (($x1073 (>= ?x289 2)))
 (let (($x112 (>= ?x289 1)))
 (let ((@x666 (hypothesis (not $x112))))
 (let ((?x716 (+ (* 2 ?x212) (* 4 n!0) (* (- 4) ?x289) (* (- 6) c!3) (* (- 2) k!2) ?x539)))
 (let (($x727 (>= ?x716 0)))
 (let (($x687 (>= ?x539 0)))
 (let ((@x497 ((_ th-lemma arith gomory-cut 1/4 -3/4 1/4 1/2) @x287 @x666 @x241 (lemma ((_ th-lemma arith farkas 1) (hypothesis (not $x687)) false) $x687) $x727)))
 (let ((@x412 (lemma ((_ th-lemma arith farkas 1/3 1 1 1 1/3 1/6 1/6 1/2 1) @x234 @x345 @x388 @x266 @x440 @x345 @x388 @x497 @x666 false) (or $x548 $x112))))
 (let ((@x796 (unit-resolution @x412 @x666 $x548)))
 (let (($x751 (>= ?x212 1)))
 (let (($x748 (<= c!3 0)))
 (let (($x790 (not $x748)))
 (let (($x528 (>= c!3 0)))
 (let (($x733 (>= c!3 (- 1))))
 (let (($x739 (not $x733)))
 (let ((@x162 (hypothesis $x739)))
 (let ((@x136 ((_ th-lemma arith) @x162 (hypothesis $x727) @x287 @x234 @x455 @x233 @x287 @x234 @x241 @x440 @x241 @x440 @x287 @x234 @x241 @x440 @x266 @x138 @x287 @x234 @x287 @x234 @x241 @x440 false)))
 (let (($x139 (not $x528)))
 (let ((@x226 (hypothesis $x139)))
 (let ((@x737 (hypothesis $x733)))
 (let ((@x738 ((_ th-lemma arith) @x241 @x440 @x287 @x234 @x241 @x440 @x287 @x234 @x241 @x440 @x241 @x440 @x737 @x226 @x737 @x226 @x737 @x226 @x737 @x226 @x737 @x226 @x737 @x226 @x737 @x226 @x737 @x226 @x287 @x234 @x287 @x234 @x737 @x226 @x737 @x226 @x287 @x234 @x241 @x440 @x241 @x440 @x455 @x233 @x737 @x226 @x737 @x226 @x737 @x226 @x737 @x226 @x287 @x234 @x266 @x138 @x737 @x226 false)))
 (let ((@x743 (lemma @x738 (or $x739 $x528))))
 (let ((@x794 (unit-resolution @x743 (unit-resolution (lemma @x136 (or $x733 (not $x727))) @x497 $x733) $x528)))
 (let ((@x749 (hypothesis $x748)))
 (let ((@x789 (hypothesis $x528)))
 (let ((@x562 ((_ th-lemma arith) @x287 @x234 @x455 @x233 @x241 @x440 @x789 @x749 @x287 @x234 @x789 @x749 @x287 @x234 @x241 @x440 @x266 @x138 @x789 @x749 @x287 @x234 false)))
 (let ((@x792 (lemma @x562 (or $x790 $x139))))
 (let ((@x795 (unit-resolution @x792 @x794 $x790)))
 (let ((@x799 (lemma ((_ th-lemma arith farkas -1/3 -1/3 1 1 1) @x796 @x287 @x666 @x795 (hypothesis (not $x751)) false) (or $x751 $x112))))
 (let ((@x801 ((_ th-lemma arith farkas 1 1 1 1 1 1 1 1) @x666 @x795 @x795 @x266 @x796 (unit-resolution @x799 @x666 $x751) @x234 @x796 false)))
 (let ((@x802 (lemma @x801 $x112)))
 (let ((@x1182 ((_ th-lemma arith) @x287 @x234 @x455 @x233 @x802 (hypothesis (not $x1073)) @x287 @x234 @x241 @x440 @x266 @x138 @x241 @x440 @x241 @x440 false)))
 (let ((@x1177 (lemma @x1182 $x1073)))
 (let ((@x1089 (lemma ((_ th-lemma arith) @x162 @x345 @x455 @x233 @x287 @x234 @x266 @x138 @x241 @x440 false) $x733)))
 (let ((@x1150 (lemma ((_ th-lemma arith farkas 1 1/9 1 2/9 2/9 2/9 2 1 1) @x138 @x345 @x1089 @x345 @x388 @x241 @x1177 @x345 @x388 false) $x548)))
 (let ((@x861 (hypothesis $x548)))
 (let (($x955 (not $x746)))
 (let ((@x956 (hypothesis $x955)))
 (let (($x957 (not (<= c!3 (- 3)))))
 (let ((@x966 (unit-resolution ((_ th-lemma arith farkas 1 1) (or $x957 $x748)) (hypothesis $x790) $x957)))
 (let ((@x967 ((_ th-lemma arith farkas -1/3 -1/3 -1/3 -1/3 -1/3 -1/3 -1/3 -1/3 1/3 1/3 -1 1 1 1 1 1 1 1) @x861 @x966 @x266 @x234 @x287 @x956 @x956 @x234 @x287 @x861 @x956 @x861 @x966 @x266 @x234 @x287 @x956 @x861 false)))
 (let ((@x1556 (unit-resolution (lemma @x967 (or $x746 $x668 $x748)) (unit-resolution @x792 (unit-resolution @x743 @x1089 $x528) $x790) (or $x746 $x668))))
 (let ((@x1557 (unit-resolution @x1556 @x1150 $x746)))
 (let ((@x961 (lemma ((_ th-lemma arith farkas 1 1 1) @x802 (hypothesis $x746) (hypothesis $x868) false) (or $x959 $x955))))
 (let ((@x1559 (unit-resolution ((_ th-lemma arith farkas 1 1) (or $x1419 $x868)) (unit-resolution @x961 @x1557 $x959) $x1419)))
 (let ((@x1562 (lemma ((_ th-lemma arith farkas 1 2 3 3 3 1 1) @x266 @x1551 @x802 @x1559 @x1551 @x1559 @x1551 false) (not $x1546))))
 (let (($x436 (<= ?x302 (- 2))))
 (let (($x1067 (<= m!1 0)))
 (let (($x1224 (not $x1067)))
 (let ((@x1481 (hypothesis $x1417)))
 (let ((@x1239 (hypothesis $x1224)))
 (let ((@x693 (hypothesis (not $x436))))
 (let (($x1336 (<= k!2 21)))
 (let (($x1414 (not $x1336)))
 (let (($x1390 (<= k!2 20)))
 (let (($x1409 (not $x1390)))
 (let (($x1330 (<= k!2 19)))
 (let (($x1348 (not $x1330)))
 (let (($x1199 (<= k!2 18)))
 (let (($x1292 (not $x1199)))
 (let (($x1245 (<= m!1 12)))
 (let (($x1288 (not $x1245)))
 (let ((@x1285 (hypothesis $x1245)))
 (let (($x1024 (<= k!2 7)))
 (let (($x1263 (not $x1024)))
 (let ((@x1260 (hypothesis $x1024)))
 (let (($x1121 (<= k!2 6)))
 (let (($x1252 (not $x1121)))
 (let ((@x1250 (hypothesis $x1121)))
 (let ((@x1251 ((_ th-lemma arith farkas 1 27 39 39 39 39 -5 1 1 1 1 1 1 1 1 1 1 1 1) @x241 @x1177 @x693 @x138 @x1150 @x1239 @x234 @x693 @x138 @x1150 @x1239 @x234 @x1250 @x693 @x138 @x1150 @x1239 @x234 @x1250 false)))
 (let ((@x1261 (unit-resolution (lemma @x1251 (or $x1252 $x436 $x1067)) @x1239 @x693 $x1252)))
 (let ((@x1262 ((_ th-lemma arith farkas 1 27 39 39 39 39 -5 1 1 1 1) @x241 @x1177 @x693 @x138 @x1150 @x1239 @x234 @x1261 @x1260 @x1261 @x1260 false)))
 (let ((@x1287 ((_ th-lemma arith farkas 1 1/2 1/2 1/2 1/2 1/2 1/2 1/2 1/2 1 1) @x233 @x693 @x138 @x1150 @x1239 @x233 @x1285 @x693 @x138 (unit-resolution (lemma @x1262 (or $x1263 $x436 $x1067)) @x1239 @x693 $x1263) @x1285 false)))
 (let ((@x1283 (hypothesis $x1199)))
 (let ((@x1284 (hypothesis $x1288)))
 (let ((@x1291 ((_ th-lemma arith gcd-test -8/9 -8/9 4/9 4/9 -1/9 -1/9 -1/9 -1/9 -1/9 -1/9 -1/9 -1/9 -1/9 -1/9 -1/9 -1/9 -1/9 -1/9 -1/9 -1/9) @x241 @x440 @x287 @x234 @x1284 @x455 @x234 @x1283 @x1284 @x455 @x234 @x1283 @x1284 @x455 @x234 @x1283 @x1284 @x455 @x234 @x1283 false)))
 (let ((@x1484 (unit-resolution (lemma @x1291 (or $x1292 $x1245)) (unit-resolution (lemma @x1287 (or $x1288 $x436 $x1067)) @x1239 @x693 $x1288) $x1292)))
 (let ((@x1356 (lemma ((_ th-lemma arith gcd-test -1/3 -1/3 -1/3 -1/3) @x287 @x234 (hypothesis $x1292) (hypothesis $x1330) false) (or $x1348 $x1199))))
 (let ((@x1406 (hypothesis $x1390)))
 (let ((@x1407 (hypothesis $x1348)))
 (let ((@x1408 ((_ th-lemma arith gcd-test 1/3 1/3 97/27 97/27 22/27 22/27 22/27 22/27 22/27 176/27 176/27 -1/3 -1/3 -1/3 -1/3) @x266 @x138 @x1407 @x1406 @x1407 @x1407 @x1406 @x1407 @x1406 @x241 @x440 @x1407 @x1406 @x1407 @x1406 false)))
 (let ((@x1490 (unit-resolution (lemma @x1408 (or $x1409 $x1330)) (unit-resolution @x1356 @x1484 $x1348) $x1409)))
 (let ((@x1405 (hypothesis $x1336)))
 (let ((@x1412 (hypothesis $x1409)))
 (let ((@x1416 (lemma ((_ th-lemma arith gcd-test -4/9 -4/9 -8/9 -8/9 -1/9 -1/9 -1/9 -1/9 -1/9) @x1412 @x1405 @x241 @x440 @x1412 @x1412 @x1405 @x1412 @x1405 false) (or $x1414 $x1390))))
 (let ((@x1491 (unit-resolution @x1416 @x1490 $x1414)))
 (let ((@x1492 ((_ th-lemma arith) @x1481 @x1177 @x693 @x138 @x1150 @x1239 @x440 @x1491 @x440 @x1481 @x1177 @x693 @x138 @x1150 @x1239 @x440 @x1491 @x1481 @x1177 @x693 @x138 @x1150 @x1239 @x1481 @x1177 @x693 @x138 @x1150 @x1239 @x1481 false)))
 (let ((@x1644 (unit-resolution (lemma @x1492 (or (not $x1417) $x436 $x1067)) (unit-resolution ((_ th-lemma arith assign-bounds 6 1) (or $x1224 $x955 (not $x144))) @x1557 @x233 $x1224) (or (not $x1417) $x436))))
 (let (($x492 (>= ?x302 (- 2))))
 (let ((@x257 ((_ th-lemma arith) (hypothesis (not $x492)) @x266 @x138 @x287 @x234 @x455 @x233 @x287 @x234 false)))
 ((_ th-lemma arith) @x266 @x138 @x287 @x234 @x1177 @x1562 @x1650 @x1177 @x1562 @x1650 @x1177 @x1562 @x1650 @x287 @x234 @x266 @x138 @x287 @x234 @x266 @x138 @x266 @x138 @x241 @x440 @x287 @x234 @x266 @x138 @x287 @x234 @x1177 @x1562 @x1650 @x1177 @x1562 @x1650 @x287 @x234 @x1177 @x1562 @x1650 @x287 @x234 @x1177 @x1562 @x1650 @x1177 @x1562 @x1650 @x1177 @x1562 @x1650 @x266 @x138 @x455 @x233 @x1177 @x1562 @x1650 @x266 @x138 (lemma @x257 $x492) (unit-resolution @x1644 @x1650 $x436) @x241 @x440 @x287 @x234 @x1177 @x1562 @x1650 @x1177 @x1562 @x1650 @x1177 @x1562 @x1650 @x1177 @x1562 @x1650 false))))))))))))))))))))))))))))))))))))))))))))))))))))))))))))))))))))))))))))))))))))))))))))))))))))))))))))))))))))))))))))))))))))))))))))))))))))))))))))))))))))))))))))))))))))))))))))))))))))))))))

(:added-eqs                 89
 :arith-assert-diseq        31
 :arith-assert-lower        861
 :arith-assert-upper        493
 :arith-bound-prop          10
 :arith-branch-var          40
 :arith-conflicts           54
 :arith-eq-adapter          14
 :arith-fixed-eqs           205
 :arith-gcd-tests           479
 :arith-gomory-cuts         31
 :arith-grobner             61
 :arith-ineq-splits         40
 :arith-max-min             8552
 :arith-nonlinear-bounds    275
 :arith-nonlinear-horner    518
 :arith-num-rows            23
 :arith-offset-eqs          6
 :arith-patches             112
 :arith-patches_succ        32
 :arith-pivots              922
 :arith-pseudo-nonlinear    228
 :arith-row-summations      4895
 :arith-tableau-max-columns 83
 :arith-tableau-max-rows    23
 :conflicts                 65
 :decisions                 412
 :del-clause                119
 :final-checks              238
 :max-memory                4.02
 :memory                    3.33
 :minimized-lits            13
 :mk-bool-var               322
 :mk-clause                 152
 :num-allocs                3705950
 :num-checks                1
 :propagations              336
 :rlimit-count              287338
 :time                      0.08
 :total-time                0.09)
